1 - 0
2 - 0
3 - 0
4 - 0
5 - 0
6 - 0
7 - 0
8 - 0
9 - 0
10 - 0
11 - 0
12 - 0
13 - 0
14 - 0
15 - 0
16 - 0
17 - 0
18 - 0
19 - 0
20 - 0
21 - 0
22 - 0
23 - 0
24 - 0
25 - 0
26 - 0
27 - 0
28 - 0
29 - 0
30 - 0
31 - 0
32 - 0
33 - 0
34 - 0
35 - 0
36 - 0
37 - 0
38 - 0
39 - 0
40 - 0
41 - 0
42 - 0
43 - 0
44 - 0
45 - 0
46 - 0
47 - 0
48 - 0
49 - 0
50 - 0
51 - 0
52 - 0
53 - 0
54 - 0
55 - 0
56 - 0
57 - 0
58 - 0
59 - 0
60 - 0
61 - 0
62 - 0
63 - 0
64 - 0
65 - 0
66 - 0
67 - 0
68 - 0
69 - 0
70 - 0
71 - 0
72 - 0
73 - 0
74 - 0
75 - 0
76 - 0
77 - 0
78 - 0
79 - 0
80 - 0
81 - 0
82 - 0
83 - 0
84 - 0
85 - 0
86 - 0
87 - 0
88 - 0
89 - 0
90 - 0
91 - 0
92 - 0
93 - 0
94 - 0
95 - 0
96 - 0
97 - 0
98 - 0
99 - 0
100 - 0
101 - 0
102 - 0
103 - 0
104 - 0
105 - 0
106 - 0
107 - 0
108 - 0
109 - 0
110 - 0
111 - 0
112 - 0
113 - 0
114 - 0
115 - 0
116 - 0
117 - 0
118 - 0
119 - 0
120 - 0
121 - 0
122 - 0
123 - 0
124 - 0
125 - 0
126 - 0
127 - 0
128 - 0
129 - 0
130 - 0
131 - 0
132 - 0
133 - 0
134 - 0
135 - 0
136 - 0
137 - 0
138 - 0
139 - 0
140 - 0
141 - 0
142 - 0
143 - 0
144 - 0
145 - 0
146 - 0
147 - 0
148 - 0
149 - 0
150 - 0
151 - 0
152 - 0
153 - 0
154 - 0
155 - 0
156 - 0
157 - 0
158 - 1
159 - 1
160 - 2
161 - 5
162 - 5
163 - 7
164 - 10
165 - 12
166 - 21
167 - 20
168 - 22
169 - 27
170 - 34
171 - 43
172 - 32
173 - 28
174 - 38
175 - 30
176 - 43
177 - 34
178 - 26
179 - 35
180 - 42
181 - 26
182 - 36
183 - 28
184 - 23
185 - 35
186 - 23
187 - 23
188 - 27
189 - 25
190 - 20
191 - 30
192 - 29
193 - 24
194 - 24
195 - 30
196 - 22
197 - 23
198 - 40
199 - 30
200 - 39
201 - 43
202 - 36
203 - 39
204 - 41
205 - 42
206 - 49
207 - 52
208 - 47
209 - 37
210 - 48
211 - 40
212 - 49
213 - 46
214 - 44
215 - 45
216 - 50
217 - 55
218 - 57
219 - 59
220 - 58
221 - 63
222 - 56
223 - 72
224 - 82
225 - 71
226 - 89
227 - 69
228 - 76
229 - 93
230 - 101
231 - 86
232 - 73
233 - 79
234 - 90
235 - 110
236 - 109
237 - 103
238 - 124
239 - 120
240 - 129
241 - 128
242 - 139
243 - 109
244 - 140
245 - 133
246 - 123
247 - 131
248 - 151
249 - 148
250 - 140
251 - 165
252 - 175
253 - 174
254 - 180
255 - 169
256 - 183
257 - 196
258 - 207
259 - 222
260 - 250
261 - 250
262 - 245
263 - 265
264 - 242
265 - 244
266 - 270
267 - 311
268 - 301
269 - 331
270 - 313
271 - 322
272 - 322
273 - 343
274 - 392
275 - 410
276 - 381
277 - 412
278 - 424
279 - 458
280 - 466
281 - 499
282 - 489
283 - 458
284 - 545
285 - 549
286 - 637
287 - 603
288 - 660
289 - 664
290 - 689
291 - 723
292 - 768
293 - 835
294 - 887
295 - 845
296 - 960
297 - 991
298 - 1049
299 - 1091
300 - 1189
301 - 1262
302 - 1329
303 - 1365
304 - 1478
305 - 1560
306 - 1599
307 - 1711
308 - 1857
309 - 1922
310 - 1997
311 - 2125
312 - 2158
313 - 2388
314 - 2495
315 - 2508
316 - 2715
317 - 2759
318 - 2847
319 - 2943
320 - 3093
321 - 3153
322 - 3353
323 - 3495
324 - 3417
325 - 3494
326 - 3573
327 - 3609
328 - 3745
329 - 3716
330 - 3634
331 - 3784
332 - 3810
333 - 3671
334 - 3615
335 - 3449
336 - 3299
337 - 3384
338 - 3252
339 - 2966
340 - 2701
341 - 2643
342 - 2327
343 - 2058
344 - 1769
345 - 1564
346 - 1299
347 - 958
348 - 622
349 - 320
350 - 0

0.1 - 15147
0.2 - 15450
0.3 - 15406
0.4 - 15510
0.5 - 15308
0.6 - 15533
0.7 - 15313
0.8 - 15272
0.9 - 15449
1 - 15306
